30 1 4
737 659 218 790 542 850 968 527 466 91 823 38 83 125 706 826 304 739 845 519 959 830 699 337 604 574 303 25 251 155 
357 988 814 575 777 355 425 744 882 890 835 704 928 918 829 633 744 132 371 588 651 329 417 349 666 20 922 968 44 173 
123 401 161 936 975 938 291 399 681 172 289 516 876 217 433 704 849 176 836 220 763 487 549 180 835 214 199 757 182 243 
929 304 644 89 240 618 26 530 17 707 702 306 222 578 522 655 282 371 831 118 590 594 604 138 773 438 352 972 194 533 
2150 1230 8370 8580 2110 770 4760 2370 6060 4920 9430 3080 7980 1650 8850 3190 8200 1660 6890 6510 2830 2780 2440 8870 4160 170 3240 7670 9890 5180 
72990
